2
100 2
40
2 1 2
8 1 1
11 1 2
13 1 1
14 1 1
15 1 1
19 1 1
20 1 1
21 1 1
24 1 1
25 1 1
26 1 2
27 1 1
30 1 2
35 1 1
36 1 1
37 1 1
45 1 1
49 1 2
50 1 1
54 1 1
56 1 1
57 1 1
60 1 2
68 1 1
69 1 2
70 1 1
71 1 1
72 1 1
73 1 1
75 1 1
77 1 1
78 1 1
83 1 1
84 1 2
89 1 2
92 1 1
93 1 1
98 1 2
99 1 1
